Gurobi Optimizer version 9.1.2 build v9.1.2rc0 (linux64)
Thread count: 36 physical cores, 72 logical processors, using up to 32 threads
Optimize a model with 12 rows, 57 columns and 590 nonzeros
Model fingerprint: 0xf32eec78
Model has 47 quadratic constraints
Coefficient statistics:
  Matrix range     [2e-05, 3e+00]
  QMatrix range    [1e+00, 1e+00]
  QLMatrix range   [1e+00, 1e+00]
  Objective range  [8e-03, 7e-01]
  Bounds range     [1e+00, 1e+00]
  RHS range        [1e+00, 1e+00]
Presolve removed 9 rows and 0 columns

Continuous model is non-convex -- solving as a MIP.

Presolve removed 9 rows and 0 columns
Presolve time: 0.00s
Presolved: 189 rows, 57 columns, 443 nonzeros
Presolved model has 47 bilinear constraint(s)
Variable types: 57 continuous, 0 integer (0 binary)

Root relaxation: objective -1.743721e+00, 44 iterations, 0.00 seconds

    Nodes    |    Current Node    |     Objective Bounds      |     Work
 Expl Unexpl |  Obj  Depth IntInf | Incumbent    BestBd   Gap | It/Node Time

     0     0   -1.74372    0   38          -   -1.74372      -     -    0s
H    0     0                       0.6147548   -1.74372   384%     -    0s
     0     0   -1.64739    0    1    0.61475   -1.64739   368%     -    0s
H    0     0                      -1.6450460   -1.64739  0.14%     -    0s
     0     0     cutoff    0        -1.64505   -1.64505  0.00%     -    0s

Cutting planes:
  RLT: 25
  BQP: 3

Explored 1 nodes (76 simplex iterations) in 0.01 seconds
Thread count was 32 (of 72 available processors)

Solution count 2: -1.64505 0.614755 
No other solutions better than -1.64505

Optimal solution found (tolerance 1.00e-04)
Best objective -1.645045978473e+00, best bound -1.645045978473e+00, gap 0.0000%

User-callback calls 77, time in user-callback 0.00 sec
Gurobi Optimizer version 9.1.2 build v9.1.2rc0 (linux64)
Thread count: 36 physical cores, 72 logical processors, using up to 32 threads
Optimize a model with 24 rows, 120 columns and 2480 nonzeros
Model fingerprint: 0xe056326e
Model has 100 quadratic constraints
Coefficient statistics:
  Matrix range     [8e-06, 4e+00]
  QMatrix range    [1e+00, 1e+00]
  QLMatrix range   [1e+00, 1e+00]
  Objective range  [6e-03, 1e+00]
  Bounds range     [1e+00, 1e+00]
  RHS range        [1e+00, 1e+00]
Presolve removed 16 rows and 0 columns

Continuous model is non-convex -- solving as a MIP.

Presolve removed 16 rows and 0 columns
Presolve time: 0.00s
Presolved: 408 rows, 120 columns, 1351 nonzeros
Presolved model has 100 bilinear constraint(s)
Variable types: 120 continuous, 0 integer (0 binary)

Root relaxation: objective -9.727285e+00, 140 iterations, 0.00 seconds

    Nodes    |    Current Node    |     Objective Bounds      |     Work
 Expl Unexpl |  Obj  Depth IntInf | Incumbent    BestBd   Gap | It/Node Time

     0     0   -9.72729    0  100          -   -9.72729      -     -    0s
H    0     0                       1.1843754   -9.72729   921%     -    0s
     0     0   -6.70660    0  100    1.18438   -6.70660   666%     -    0s
H    0     0                       0.4943089   -6.70660  1457%     -    0s
     0     0   -5.94423    0   90    0.49431   -5.94423  1303%     -    0s
H    0     0                      -0.8983432   -5.94423   562%     -    0s
     0     0   -5.89963    0  100   -0.89834   -5.89963   557%     -    0s
     0     0   -5.72740    0   90   -0.89834   -5.72740   538%     -    0s
     0     0   -5.66435    0   90   -0.89834   -5.66435   531%     -    0s
     0     0   -5.64411    0   90   -0.89834   -5.64411   528%     -    0s
     0     0   -5.63608    0   90   -0.89834   -5.63608   527%     -    0s
     0     0   -5.62211    0   90   -0.89834   -5.62211   526%     -    0s
     0     0   -5.62098    0   90   -0.89834   -5.62098   526%     -    0s
     0     0   -5.60926    0   90   -0.89834   -5.60926   524%     -    0s
     0     0   -5.60907    0   90   -0.89834   -5.60907   524%     -    0s
     0     0   -5.60859    0   90   -0.89834   -5.60859   524%     -    0s
H    0     0                      -2.3802439   -5.60859   136%     -    0s
H    0     0                      -3.8320513   -5.60859  46.4%     -    0s
H    0     0                      -3.9643862   -5.60859  41.5%     -    0s
     0     2   -5.60859    0   90   -3.96439   -5.60859  41.5%     -    0s
*  745   400              25      -3.9651584   -4.95631  25.0%  31.4    0s
*  747   400              26      -3.9652248   -4.95631  25.0%  31.3    0s
*  806   400              25      -3.9804799   -4.95631  24.5%  30.7    0s
*  865   482              20      -4.3397300   -4.95631  14.2%  30.4    0s
* 1422   481              25      -4.4677400   -4.76027  6.55%  25.9    0s
* 1423   481              25      -4.4677430   -4.76027  6.55%  25.8    0s
* 1703   319              24      -4.4684487   -4.76027  6.53%  23.2    0s
* 1860   476              24      -4.4690434   -4.76027  6.52%  21.7    0s
* 1861   476              24      -4.4690593   -4.76027  6.52%  21.7    0s
* 1863   476              24      -4.4695517   -4.76027  6.50%  21.7    0s
* 1889   476              34      -4.4944113   -4.76027  5.92%  21.4    0s
* 1909   476              31      -4.4950256   -4.76027  5.90%  21.2    0s
* 1970   476              22      -4.4998287   -4.76027  5.79%  20.7    0s
* 1973   476              22      -4.5011061   -4.76027  5.76%  20.7    0s
* 2284   193              20      -4.5217905   -4.52277  0.02%  18.5    0s
* 2285   193              20      -4.5217926   -4.52277  0.02%  18.5    0s

Cutting planes:
  RLT: 70
  BQP: 9
  PSD: 9

Explored 2657 nodes (43450 simplex iterations) in 0.63 seconds
Thread count was 32 (of 72 available processors)

Solution count 10: -4.52179 -4.50111 -4.49983 ... -4.46774
No other solutions better than -4.52179

Optimal solution found (tolerance 1.00e-04)
Best objective -4.521792592833e+00, best bound -4.521792592833e+00, gap 0.0000%

User-callback calls 5621, time in user-callback 0.00 sec



objective value: -4.521792592832936
objective bound: -4.521792592832936
x_opt: [0.0, 1.0, 1.0, 0.0, 1.0, 0.30642411886344695, 0.0, 0.0, 1.0, 0.37331565908231207, 0.0, 0.0, 0.0, 1.0, 1.3552527156068805e-20, 0.8366672502090247, 1.0, 0.9577903520511156, 0.0, 1.0]
GUROBI solution time: 0.6310257911682129




